p tw 60 1168
1 2
1 6
1 10
1 11
1 12
1 13
1 15
1 17
1 20
1 21
1 23
1 27
1 28
1 33
1 35
1 38
1 41
1 42
1 45
1 46
1 49
1 53
1 58
1 59
2 6
2 7
2 9
2 10
2 11
2 12
2 14
2 15
2 16
2 17
2 20
2 21
2 23
2 25
2 26
2 27
2 32
2 33
2 35
2 38
2 41
2 46
2 50
2 52
2 54
2 59
3 4
3 5
3 8
3 12
3 19
3 20
3 22
3 28
3 34
3 38
3 39
3 41
3 42
3 43
3 47
3 48
3 49
3 50
3 51
3 53
3 55
3 56
4 5
4 6
4 7
4 8
4 9
4 12
4 14
4 16
4 18
4 19
4 20
4 22
4 25
4 26
4 29
4 30
4 31
4 32
4 34
4 36
4 37
4 39
4 40
4 41
4 43
4 44
4 45
4 47
4 48
4 49
4 50
4 51
4 52
4 53
4 55
4 56
5 8
5 12
5 19
5 20
5 22
5 23
5 28
5 31
5 34
5 36
5 38
5 39
5 41
5 42
5 43
5 47
5 48
5 49
5 50
5 51
5 53
5 55
5 56
6 7
6 8
6 9
6 10
6 11
6 12
6 14
6 15
6 16
6 17
6 18
6 19
6 20
6 21
6 22
6 23
6 25
6 26
6 27
6 28
6 29
6 30
6 31
6 32
6 33
6 36
6 37
6 38
6 40
6 41
6 42
6 43
6 44
6 45
6 48
6 49
6 50
6 52
6 53
6 55
7 9
7 11
7 12
7 14
7 15
7 16
7 17
7 20
7 21
7 22
7 23
7 26
7 28
7 29
7 30
7 31
7 37
7 38
7 41
7 42
7 45
7 49
7 50
7 52
7 53
7 55
8 12
8 14
8 18
8 19
8 20
8 22
8 23
8 28
8 31
8 34
8 36
8 37
8 38
8 39
8 40
8 41
8 42
8 43
8 44
8 47
8 48
8 49
8 50
8 51
8 53
8 55
8 56
9 11
9 12
9 14
9 15
9 16
9 17
9 20
9 21
9 22
9 23
9 25
9 26
9 28
9 29
9 30
9 32
9 37
9 38
9 41
9 42
9 45
9 49
9 50
9 52
9 53
9 55
10 11
10 12
10 15
10 16
10 17
10 20
10 21
10 23
10 25
10 26
10 27
10 28
10 32
10 33
10 38
10 41
10 42
10 49
10 53
11 12
11 15
11 16
11 17
11 20
11 21
11 23
11 25
11 26
11 27
11 28
11 30
11 32
11 33
11 38
11 41
11 42
11 45
11 49
11 52
11 53
12 14
12 15
12 16
12 17
12 18
12 19
12 20
12 21
12 22
12 23
12 25
12 26
12 27
12 28
12 29
12 30
12 31
12 32
12 33
12 34
12 36
12 37
12 38
12 39
12 40
12 41
12 42
12 43
12 44
12 45
12 47
12 48
12 49
12 50
12 51
12 52
12 53
12 55
12 56
13 3
13 4
13 5
13 6
13 7
13 8
13 9
13 10
13 11
13 12
13 14
13 15
13 16
13 17
13 18
13 19
13 20
13 21
13 22
13 23
13 25
13 26
13 27
13 28
13 29
13 30
13 31
13 32
13 33
13 34
13 35
13 36
13 37
13 38
13 39
13 40
13 41
13 42
13 43
13 44
13 45
13 46
13 47
13 49
13 50
13 51
13 52
13 53
13 55
13 56
13 57
13 58
13 59
13 60
14 15
14 16
14 18
14 19
14 20
14 21
14 22
14 23
14 25
14 26
14 28
14 29
14 30
14 31
14 32
14 36
14 37
14 38
14 40
14 41
14 42
14 44
14 45
14 48
14 49
14 50
14 51
14 52
14 53
14 55
15 16
15 17
15 20
15 21
15 22
15 23
15 25
15 26
15 27
15 28
15 30
15 32
15 33
15 37
15 38
15 41
15 42
15 45
15 49
15 50
15 52
15 53
15 55
16 17
16 20
16 21
16 22
16 23
16 25
16 26
16 27
16 28
16 29
16 30
16 32
16 33
16 37
16 38
16 41
16 42
16 45
16 49
16 50
16 52
16 53
16 55
17 20
17 21
17 23
17 25
17 26
17 27
17 28
17 30
17 32
17 33
17 38
17 41
17 42
17 45
17 49
17 50
17 52
17 53
18 19
18 20
18 22
18 23
18 28
18 29
18 30
18 31
18 37
18 38
18 40
18 41
18 42
18 44
18 45
18 48
18 49
18 50
18 53
18 55
19 20
19 22
19 23
19 28
19 29
19 30
19 31
19 34
19 36
19 37
19 38
19 39
19 40
19 41
19 42
19 43
19 44
19 45
19 47
19 48
19 49
19 50
19 51
19 53
19 55
19 56
20 21
20 22
20 23
20 25
20 26
20 27
20 28
20 29
20 30
20 31
20 32
20 33
20 34
20 36
20 37
20 38
20 39
20 40
20 41
20 42
20 43
20 44
20 45
20 47
20 48
20 49
20 50
20 51
20 52
20 53
20 55
20 56
21 22
21 23
21 25
21 26
21 27
21 28
21 30
21 32
21 33
21 37
21 38
21 40
21 41
21 42
21 44
21 45
21 49
21 50
21 52
21 53
21 55
22 23
22 25
22 26
22 28
22 29
22 30
22 31
22 32
22 34
22 36
22 37
22 38
22 39
22 40
22 41
22 42
22 43
22 44
22 45
22 47
22 48
22 49
22 50
22 51
22 52
22 53
22 55
22 56
23 25
23 26
23 27
23 28
23 29
23 30
23 31
23 32
23 33
23 34
23 36
23 37
23 38
23 39
23 40
23 41
23 42
23 44
23 45
23 47
23 49
23 50
23 51
23 52
23 53
23 54
23 55
23 56
24 8
24 19
24 39
24 41
24 47
24 48
24 49
24 50
24 51
24 56
25 26
25 27
25 28
25 30
25 32
25 33
25 37
25 38
25 41
25 42
25 45
25 49
25 52
25 53
25 55
26 28
26 29
26 30
26 32
26 33
26 37
26 38
26 41
26 42
26 45
26 49
26 50
26 52
26 53
26 55
27 28
27 30
27 33
27 38
27 41
27 42
27 45
27 49
27 52
27 53
28 29
28 30
28 31
28 32
28 33
28 34
28 36
28 37
28 38
28 39
28 40
28 41
28 42
28 43
28 44
28 45
28 47
28 49
28 50
28 51
28 52
28 53
28 55
28 56
29 30
29 36
29 37
29 38
29 40
29 41
29 42
29 44
29 45
29 49
29 50
29 51
29 53
29 55
30 32
30 37
30 38
30 40
30 41
30 42
30 44
30 45
30 49
30 50
30 52
30 53
30 55
31 34
31 36
31 37
31 38
31 39
31 40
31 41
31 42
31 44
31 47
31 48
31 49
31 50
31 51
31 53
31 55
31 56
32 33
32 37
32 38
32 41
32 42
32 45
32 49
32 50
32 52
32 53
32 55
33 38
33 41
33 42
33 49
33 53
34 38
34 39
34 41
34 42
34 43
34 47
34 48
34 49
34 50
34 51
34 53
34 55
34 56
35 3
35 4
35 5
35 6
35 7
35 8
35 9
35 10
35 11
35 12
35 14
35 15
35 16
35 17
35 18
35 19
35 20
35 21
35 22
35 23
35 25
35 26
35 27
35 28
35 29
35 30
35 31
35 32
35 33
35 34
35 36
35 37
35 38
35 39
35 40
35 41
35 42
35 43
35 44
35 45
35 46
35 47
35 48
35 49
35 50
35 51
35 52
35 53
35 55
35 56
35 57
35 58
35 59
35 60
36 37
36 38
36 40
36 41
36 42
36 43
36 45
36 47
36 48
36 49
36 50
36 51
36 53
36 55
37 38
37 40
37 41
37 42
37 44
37 45
37 47
37 48
37 49
37 50
37 51
37 52
37 53
37 55
38 39
38 40
38 41
38 42
38 43
38 44
38 45
38 47
38 49
38 50
38 51
38 52
38 53
38 55
38 56
39 41
39 42
39 43
39 47
39 48
39 49
39 50
39 51
39 53
39 55
39 56
40 41
40 42
40 43
40 44
40 45
40 48
40 49
40 50
40 51
40 53
40 55
41 42
41 43
41 44
41 45
41 47
41 48
41 49
41 50
41 51
41 52
41 53
41 54
41 55
41 56
42 43
42 44
42 45
42 47
42 48
42 49
42 50
42 51
42 52
42 53
42 55
42 56
43 47
43 48
43 49
43 50
43 51
43 53
43 55
43 56
44 45
44 48
44 49
44 50
44 53
44 55
45 49
45 50
45 51
45 52
45 53
45 55
46 4
46 5
46 6
46 7
46 8
46 9
46 10
46 11
46 12
46 14
46 15
46 16
46 17
46 18
46 19
46 20
46 21
46 22
46 23
46 25
46 26
46 27
46 28
46 29
46 30
46 31
46 32
46 33
46 34
46 36
46 37
46 38
46 40
46 41
46 42
46 43
46 44
46 45
46 47
46 48
46 49
46 50
46 51
46 52
46 53
46 55
46 57
46 58
46 59
46 60
47 48
47 49
47 50
47 51
47 53
47 55
47 56
48 49
48 50
48 51
48 55
48 56
49 50
49 51
49 52
49 53
49 55
49 56
50 51
50 52
50 53
50 55
50 56
51 53
51 55
51 56
52 53
52 55
53 55
53 56
55 56
57 4
57 6
57 8
57 12
57 14
57 18
57 19
57 20
57 22
57 23
57 28
57 29
57 30
57 31
57 37
57 38
57 40
57 41
57 42
57 44
57 45
57 48
57 49
57 50
57 53
57 55
57 58
57 59
57 60
58 6
58 7
58 9
58 10
58 11
58 12
58 14
58 15
58 16
58 17
58 18
58 19
58 20
58 21
58 22
58 23
58 25
58 26
58 27
58 28
58 30
58 32
58 37
58 38
58 40
58 41
58 42
58 44
58 45
58 49
58 50
58 52
58 53
58 55
58 59
59 4
59 6
59 7
59 8
59 9
59 10
59 11
59 12
59 14
59 15
59 16
59 17
59 18
59 19
59 20
59 21
59 22
59 23
59 25
59 26
59 27
59 28
59 29
59 30
59 31
59 32
59 33
59 36
59 37
59 38
59 40
59 41
59 42
59 43
59 44
59 45
59 48
59 49
59 50
59 51
59 52
59 53
59 55
59 60
60 3
60 4
60 5
60 6
60 8
60 12
60 14
60 18
60 19
60 20
60 22
60 23
60 28
60 29
60 30
60 31
60 34
60 36
60 37
60 38
60 39
60 40
60 41
60 42
60 43
60 44
60 45
60 47
60 48
60 49
60 50
60 51
60 53
60 55
60 56
